(set-info :origin "driver benchmark extracted from Microsoft SDV")
(set-logic HORN)
(declare-fun Proc33
             (Int
              (Array Int Int)
              (Array Int Int)
              Int
              Int
              Int
              Int
              Bool
              Int
              Bool
              Int
              Int
              Int
              (Array Int Int)
              Int
              Int
              (Array Int Int))
             Bool)
(declare-fun Proc15
             (Int (Array Int Int) (Array Int Int) Int Int Int Int Bool Int)
             Bool)
(declare-fun Proc9
             (Int
              (Array Int Int)
              (Array Int Int)
              Int
              Int
              Int
              Int
              Bool
              Int
              Int
              Int
              Int)
             Bool)
(declare-fun Proc16
             (Int (Array Int Int) (Array Int Int) Int Int Int Int Bool Int Int)
             Bool)
(declare-fun Proc13
             (Int (Array Int Int) (Array Int Int) Int Int Int Int Bool)
             Bool)
(declare-fun Proc32
             (Int (Array Int Int) (Array Int Int) Int Int Int Int Bool)
             Bool)
(declare-fun Proc22
             (Int (Array Int Int) (Array Int Int) Int Int Int Int Bool Int)
             Bool)
(declare-fun Proc5
             (Int
              (Array Int Int)
              (Array Int Int)
              Int
              Int
              Int
              Int
              Bool
              Int
              Int
              Int
              (Array Int Int)
              Int)
             Bool)
(declare-fun Proc8
             (Int (Array Int Int) (Array Int Int) Int Int Int Int Bool Int Int)
             Bool)
(declare-fun Proc18
             (Int
              (Array Int Int)
              (Array Int Int)
              Int
              Int
              Int
              Int
              Bool
              (Array Int Int)
              Int
              Int)
             Bool)
(declare-fun Proc12
             (Int (Array Int Int) (Array Int Int) Int Int Int Int Bool)
             Bool)
(declare-fun Proc11
             (Int (Array Int Int) (Array Int Int) Int Int Int Int Bool)
             Bool)
(declare-fun Proc25
             (Int
              (Array Int Int)
              (Array Int Int)
              Int
              Int
              Int
              Int
              Bool
              Int
              Int
              Int
              (Array Int Int)
              Int)
             Bool)
(declare-fun Proc6
             (Int
              (Array Int Int)
              (Array Int Int)
              Int
              Int
              Int
              Int
              Bool
              Int
              Int
              Int
              Int
              Int)
             Bool)
(declare-fun Proc0
             (Int (Array Int Int) (Array Int Int) Int Int Int Int Bool Int Int)
             Bool)
(declare-fun Proc23
             (Int (Array Int Int) (Array Int Int) Int Int Int Int Bool Int Int)
             Bool)
(declare-fun Proc27
             (Int
              (Array Int Int)
              (Array Int Int)
              Int
              Int
              Int
              Int
              Bool
              Int
              Int
              Int
              (Array Int Int)
              Int)
             Bool)
(declare-fun Proc7
             (Int
              (Array Int Int)
              (Array Int Int)
              Int
              Int
              Int
              Int
              Bool
              Int
              Int
              Int
              Int)
             Bool)
(declare-fun Proc14
             (Int (Array Int Int) (Array Int Int) Int Int Int Int Bool)
             Bool)
(declare-fun Proc3
             (Int
              (Array Int Int)
              (Array Int Int)
              Int
              Int
              Int
              Int
              Bool
              Int
              Int
              Int
              Int)
             Bool)
(declare-fun Proc29
             (Int
              (Array Int Int)
              (Array Int Int)
              Int
              Int
              Int
              Int
              Bool
              Int
              Int
              Int
              (Array Int Int)
              Int
              Int)
             Bool)
(declare-fun Proc26
             (Int
              (Array Int Int)
              (Array Int Int)
              Int
              Int
              Int
              Int
              Bool
              Int
              Int
              Int
              (Array Int Int)
              Int)
             Bool)
(declare-fun Proc21
             (Int (Array Int Int) (Array Int Int) Int Int Int Int Bool)
             Bool)
(declare-fun Proc30
             (Int
              (Array Int Int)
              (Array Int Int)
              Int
              Int
              Int
              Int
              Bool
              Int
              Int
              Int
              (Array Int Int)
              Int)
             Bool)
(declare-fun Proc20
             (Int (Array Int Int) (Array Int Int) Int Int Int Int Bool Int Int)
             Bool)
(declare-fun Proc4
             (Int
              (Array Int Int)
              (Array Int Int)
              Int
              Int
              Int
              Int
              Bool
              Int
              Int
              Int
              (Array Int Int)
              Int)
             Bool)
(declare-fun Proc31
             (Int
              (Array Int Int)
              (Array Int Int)
              Int
              Int
              Int
              Int
              Bool
              Int
              Int
              Int
              (Array Int Int)
              Int)
             Bool)
(declare-fun Proc28
             (Int
              (Array Int Int)
              (Array Int Int)
              Int
              Int
              Int
              Int
              Bool
              Int
              Int
              Int
              (Array Int Int)
              Int)
             Bool)
(declare-fun Proc10
             (Int
              (Array Int Int)
              (Array Int Int)
              Int
              Int
              Int
              Int
              Bool
              Int
              Int
              Int
              Int)
             Bool)
(declare-fun Proc1
             (Int (Array Int Int) (Array Int Int) Int Int Int Int Bool Int Int)
             Bool)
(declare-fun Proc24
             (Int
              (Array Int Int)
              (Array Int Int)
              Int
              Int
              Int
              Int
              Bool
              Int
              Int
              Int
              (Array Int Int)
              Int)
             Bool)
(declare-fun Proc2
             (Int
              (Array Int Int)
              (Array Int Int)
              Int
              Int
              Int
              Int
              Bool
              Int
              (Array Int Int))
             Bool)
(declare-fun Proc17
             (Int (Array Int Int) (Array Int Int) Int Int Int Int Bool Int Int)
             Bool)
(declare-fun Proc19
             (Int
              (Array Int Int)
              (Array Int Int)
              Int
              Int
              Int
              Int
              Bool
              Int
              Int
              Int
              Int
              (Array Int Int)
              Bool
              Int
              Int
              (Array Int Int))
             Bool)
(assert (forall ((A (Array Int Int))
         (B (Array Int Int))
         (C Bool)
         (D Int)
         (E Int)
         (F Int)
         (G Int)
         (H Int)
         (I (Array Int Int))
         (J Int)
         (K Bool)
         (L Int)
         (M Int)
         (N Int)
         (O Bool)
         (P Int)
         (Q Int)
         (R Int)
         (S Int)
         (T Int)
         (U Int)
         (V (Array Int Int))
         (W (Array Int Int))
         (X Int)
         (Y Bool))
  (let ((a!1 (or (= Q 0)
                 (not (Proc1 X W V U T S R Y Q 0))
                 (not O)
                 (not (and (= N X) (= M 0)))
                 (not (and (= L M) K (= J N)))))
        (a!2 (or (= Q 0)
                 (not (Proc2 X W V U T S R Y Q I))
                 (= H 0)
                 (= G 0)
                 (not (Proc3 X W I U T S R Y F Q E D))
                 (not C)
                 (not (and (= N D) (= M E)))
                 (not (and (= L M) K (= J N))))))
  (let ((a!3 (not (or (not Y)
                      (not (Proc0 X W V U T S R Y Q P))
                      (= P 0)
                      (and a!1 a!2)))))
    (=> (and a!3 (= O (= B V)) (= K (= A B)) (= C (= B I)))
        (Proc4 X W V U T S R Y H Q L A J))))))
(assert (forall ((A (Array Int Int))
         (B (Array Int Int))
         (C Bool)
         (D Int)
         (E Int)
         (F Int)
         (G Int)
         (H Int)
         (I (Array Int Int))
         (J Int)
         (K Bool)
         (L Int)
         (M Int)
         (N Int)
         (P Int)
         (Q Int)
         (R Int)
         (S Int)
         (V (Array Int Int)))
  (let ((a!1 (or (not K)
                 (not (Proc2 S V I R Q P N K M B))
                 (= L 0)
                 (= J 0)
                 (not (Proc3 S V B R Q P N K H M G F))
                 (not (and (= E 0) C (= D F))))))
    (=> (and (not a!1) (= C (= A B))) (Proc5 S V I R Q P N K L M E A D)))))
(assert (forall ((A (Array Int Int))
         (B (Array Int Int))
         (C Bool)
         (D Int)
         (E Int)
         (F Int)
         (G Int)
         (H Int)
         (J Int)
         (L Int)
         (M Int)
         (N Int)
         (P Int)
         (Q Int)
         (R Int)
         (S Int)
         (T Int)
         (U Int)
         (X Int)
         (Z Int)
         (A1 Int)
         (B1 Int)
         (C1 Int)
         (D1 Int)
         (E1 Int)
         (F1 Int))
  (let ((a!1 (and (not (<= D1 (+ 4 F1))) (not (<= D1 E1))))
        (a!2 (or (not (Proc6 D1 B A B1 A1 Z X C U C1 T F1 S))
                 (not (and (= R 259) (= Q D1)))))
        (a!4 (or (not (Proc6 D1 B A B1 A1 Z X C P C1 N F1 M))
                 (not (and (= R 259) (= Q D1)))))
        (a!6 (or (not (Proc6 D1 B A B1 A1 Z X C L C1 J F1 H))
                 (not (and (= R 259) (= Q D1)))))
        (a!8 (or (not (Proc6 D1 B A B1 A1 Z X C G C1 F F1 E))
                 (not (and (= R 259) (= Q D1))))))
  (let ((a!3 (and a!2 (not (and (= R 259) (= Q D1)))))
        (a!5 (and a!4 (not (and (= R 259) (= Q D1)))))
        (a!7 (and a!6 (not (and (= R 259) (= Q D1)))))
        (a!9 (and a!8 (not (and (= R 259) (= Q D1))))))
  (let ((a!10 (or (not C)
                  (not (= F1 E1))
                  (not a!1)
                  (and (or (= C1 0) a!3)
                       (or (= C1 0) a!5)
                       (or (= C1 0) a!7)
                       (or (= C1 0) a!9)))))
    (=> (not a!10) (Proc7 E1 B A B1 A1 Z X C D C1 R Q)))))))
(assert (forall ((A (Array Int Int))
         (B (Array Int Int))
         (C Bool)
         (D Int)
         (E Int)
         (F Int)
         (G Int)
         (H Int)
         (J Int)
         (L Int)
         (M Int)
         (N Int)
         (P Int)
         (Q Int)
         (R Int))
  (let ((a!1 (and (not (<= P (+ 1 R))) (not (<= P Q)))))
  (let ((a!2 (or (not C)
                 (not (= R Q))
                 (not a!1)
                 (not (Proc8 P B A N M L J C R H))
                 (not (and (= G P) (= F H))))))
    (=> (not a!2) (Proc9 Q B A N M L J C E D G F))))))
(assert (forall ((A (Array Int Int))
         (B (Array Int Int))
         (C Bool)
         (D Int)
         (E Int)
         (F Int)
         (G Int)
         (H Int)
         (J Int)
         (L Int))
  (let ((a!1 (not (or (not C) (not (= L 1))))))
    (=> a!1 (Proc8 J B A H G F E C D L)))))
(assert (forall ((A (Array Int Int))
         (B (Array Int Int))
         (C Bool)
         (D Int)
         (E Int)
         (F Int)
         (G Int)
         (H Int)
         (J Int)
         (L Int)
         (M Int)
         (N Int)
         (P Int)
         (Q Int)
         (R Int)
         (S Int)
         (T Int))
  (let ((a!1 (and (not (= T 0)) (= S (select B (+ 164 T)))))
        (a!2 (or (= (select A S) 27)
                 (not (and (= R Q) (= P N)))
                 (not (and (= M P) (= L R)))))
        (a!3 (or (not (and (= R Q) (= P N))) (not (and (= M P) (= L R)))))
        (a!4 (or (= J 1)
                 (not (and (= R Q) (= P N)))
                 (not (and (= M P) (= L R)))))
        (a!5 (or (not (= D 1))
                 (not (and (= R D) (= P E)))
                 (not (and (= M P) (= L R)))))
        (a!6 (or (= D 1)
                 (not (and (= R D) (= P E)))
                 (not (and (= M P) (= L R))))))
  (let ((a!7 (and a!3
                  a!4
                  (or (not (= J 1))
                      (not (Proc9 N B A J H G Q C F T E D))
                      (and a!5 a!6)))))
  (let ((a!8 (or (not (= (select A S) 27)) a!7)))
    (=> (not (or (not C) (not a!1) (= S 0) (and a!2 a!8)))
        (Proc10 N B A J H G Q C F T M L)))))))
(assert (forall ((A (Array Int Int))
         (B (Array Int Int))
         (C Bool)
         (D Int)
         (E Int)
         (F Int)
         (G Int)
         (H Int))
  (=> C (Proc11 H B A G F E D C))))
(assert (forall ((A (Array Int Int))
         (B (Array Int Int))
         (C Bool)
         (D Int)
         (E Int)
         (F Int)
         (G Int)
         (H Int))
  (=> C (Proc12 H B A G F E D C))))
(assert (forall ((A (Array Int Int))
         (B (Array Int Int))
         (C Bool)
         (D Int)
         (E Int)
         (F Int)
         (G Int)
         (H Int))
  (=> C (Proc13 H B A G F E D C))))
(assert (forall ((A (Array Int Int))
         (B (Array Int Int))
         (C Bool)
         (D Int)
         (E Int)
         (F Int)
         (G Int)
         (H Int))
  (=> C (Proc14 H B A G F E D C))))
(assert (forall ((A (Array Int Int))
         (B (Array Int Int))
         (C Bool)
         (D Int)
         (E Int)
         (F Int)
         (G Int)
         (H Int)
         (J Int))
  (let ((a!1 (not (or (not C) (not (= J H))))))
    (=> a!1 (Proc15 G B A F E H D C J)))))
(assert (forall ((A (Array Int Int))
         (B (Array Int Int))
         (C Bool)
         (D Int)
         (E Int)
         (F Int)
         (G Int)
         (H Int)
         (J Int)
         (L Int))
  (let ((a!1 (or (not C) (not (and (= L 0) (= J 0))))))
    (=> (not a!1) (Proc16 H B A G F E D C L J)))))
(assert (forall ((A (Array Int Int))
         (B (Array Int Int))
         (C Bool)
         (D Int)
         (E Int)
         (F Int)
         (G Int)
         (H Int)
         (I (Array Int Int))
         (J Int)
         (K Bool)
         (L Int)
         (M Int)
         (N Int)
         (O Bool)
         (P Int)
         (Q Int)
         (R Int)
         (S Int)
         (T Int)
         (U Int)
         (V (Array Int Int))
         (W (Array Int Int))
         (X Int)
         (Y Bool)
         (Z Int)
         (A1 Int)
         (B1 Int)
         (C1 Int)
         (D1 Int)
         (G1 Bool)
         (H1 (Array Int Int))
         (I1 Bool))
  (let ((a!1 (not (and (not (<= D1 0)) (Proc17 D1 H1 W C1 B1 A1 Z I1 X U))))
        (a!2 (not (and (= L N)
                       (= J T)
                       (= H P)
                       (= G R)
                       Y
                       (= O G1)
                       (= F Q)
                       (= E U)
                       K))))
  (let ((a!3 (or (= P 0) (not (and (= N M) (not G1))) a!2))
        (a!4 (or (not (and (= P 0) (= C I1))) (not (and (= N D) (= G1 C))) a!2)))
  (let ((a!5 (and (or (= P 1) (and a!3 a!4)) (or (not (= P 1)) (and a!3 a!4)))))
  (let ((a!6 (not (or (not I1)
                      a!1
                      (not (Proc16 X H1 W C1 B1 U Z I1 T S))
                      (not (Proc15 X H1 W T B1 U S I1 R))
                      (not (Proc14 X H1 W T R U S I1))
                      (not (Proc13 X H1 W T R U S I1))
                      (not (Proc12 X H1 W T R U S I1))
                      (not (Proc11 X H1 W T R U S I1))
                      (= R 0)
                      (not (Proc18 X V W T R U S I1 I Q P))
                      a!5))))
    (=> (and a!6 (= Y (= B V)) (= K (= A I)))
        (Proc19 D1 H1 W C1 B1 A1 Z I1 L J H G B O F E A))))))))
(assert (forall ((A (Array Int Int))
         (B (Array Int Int))
         (C Bool)
         (D Int)
         (E Int)
         (F Int)
         (G Int)
         (H Int)
         (J Int)
         (L Int)
         (M Int)
         (N Int)
         (P Int)
         (Q Int))
  (let ((a!1 (or (not C)
                 (not (Proc7 Q B A P N M L C J H G F))
                 (not (and (= E G) (= D F))))))
    (=> (not a!1) (Proc3 Q B A P N M L C J H E D)))))
(assert (forall ((A (Array Int Int))
         (B (Array Int Int))
         (C Bool)
         (D Int)
         (E Int)
         (F Int)
         (G Int)
         (H Int)
         (J Int)
         (L Int))
  (=> C (Proc1 L B A J H G F C E D))))
(assert (forall ((A (Array Int Int))
         (B (Array Int Int))
         (C Bool)
         (D Int)
         (E Int)
         (F Int)
         (G Int)
         (H Int)
         (J Int)
         (L Int)
         (M Int))
  (let ((a!1 (and (not (= M 0)) (= L (select B (+ 164 M))))))
  (let ((a!2 (not (or (not C) (not a!1) (not (= J L))))))
    (=> a!2 (Proc0 H B A G F E D C M J))))))
(assert (forall ((A (Array Int Int))
         (B (Array Int Int))
         (C Bool)
         (D Int)
         (E Int)
         (F Int)
         (G Int)
         (H Int)
         (J Int)
         (L Int)
         (M Int)
         (N Int)
         (P Int)
         (Q Int))
  (let ((a!1 (and (or (not (= N M)) (not (= L N)))
                  (or (not (= N J)) (not (= L N))))))
  (let ((a!2 (and (or (= Q P) a!1)
                  (or (not (= Q P)) (not (= N H)) (not (= L N))))))
    (=> (not (or (not C) a!2)) (Proc20 G B A F E P D C Q L))))))
(assert (forall ((A (Array Int Int))
         (B (Array Int Int))
         (C Bool)
         (D Int)
         (E Int)
         (F Int)
         (G Int)
         (H Int)
         (I (Array Int Int))
         (J Int)
         (K Bool)
         (O Bool)
         (V (Array Int Int))
         (W (Array Int Int))
         (Y Bool)
         (G1 Bool)
         (H1 (Array Int Int))
         (I1 Bool)
         (J1 (Array Int Int)))
  (let ((a!1 (not (and (not (= J H)) G1)))
        (a!2 (and (or (not Y) (not O)) (or (not K) (not O)))))
  (let ((a!3 (and (or a!1 a!2) (or (not (= J H)) (not C) a!2))))
  (let ((a!4 (and (not (or (not I1) a!3))
                  (= G1 (= J1 H1))
                  (= Y (= W J1))
                  (= O (= V W))
                  (= K (= W I))
                  (= C (= J1 B)))))
    (=> a!4 (Proc2 G A H1 F E H D I1 J V)))))))
(assert (forall ((A (Array Int Int))
         (B (Array Int Int))
         (C Bool)
         (D Int)
         (E Int)
         (F Int)
         (G Int)
         (H Int)
         (J Int)
         (L Int)
         (M Int)
         (N Int)
         (P Int)
         (Q Int))
  (let ((a!1 (not (or (not C) (not (Proc20 Q B A P N M L C J H)) (not (= G 0))))))
    (=> a!1 (Proc6 Q B A P N M L C F J E D G)))))
(assert (forall ((A (Array Int Int))
         (B (Array Int Int))
         (C Bool)
         (D Int)
         (E Int)
         (F Int)
         (G Int)
         (H Int)
         (I (Array Int Int))
         (J Int)
         (K Bool)
         (L Int)
         (M Int)
         (N Int)
         (O Bool)
         (P Int)
         (Q Int)
         (R Int)
         (V (Array Int Int))
         (W (Array Int Int)))
  (let ((a!1 (and (not (= R 0)) (= Q (select W (+ 164 R)))))
        (a!2 (not (and (not (= Q 0)) K))))
  (let ((a!3 (or (not O)
                 (not a!1)
                 a!2
                 (= Q 0)
                 (= R 0)
                 (not (Proc21 P W V N M L J O))
                 (not (Proc22 P W V N M L J O R))
                 (not (Proc4 P W V N M L J O H R G I F))
                 (not (Proc23 F W I N M L J O G R))
                 (not (and (= E G) C (= D F))))))
  (let ((a!4 (and (not a!3) (= K (= V (store B Q 27))) (= C (= A I)))))
    (=> a!4 (Proc24 P W B N M L J O H R E A D)))))))
(assert (forall ((A (Array Int Int))
         (B (Array Int Int))
         (C Bool)
         (D Int)
         (E Int)
         (F Int)
         (G Int)
         (H Int)
         (I (Array Int Int))
         (J Int)
         (K Bool)
         (L Int)
         (M Int)
         (N Int)
         (O Bool)
         (P Int)
         (Q Int)
         (R Int)
         (V (Array Int Int))
         (W (Array Int Int)))
  (let ((a!1 (and (not (= R 0)) (= Q (select W (+ 164 R)))))
        (a!2 (not (and (not (= Q 0)) K))))
  (let ((a!3 (or (not O)
                 (not a!1)
                 a!2
                 (= Q 0)
                 (= R 0)
                 (not (Proc22 P W V N M L J O R))
                 (not (Proc4 P W V N M L J O H R G I F))
                 (not (and (= E G) C (= D F))))))
  (let ((a!4 (and (not a!3) (= K (= V (store B Q 27))) (= C (= A I)))))
    (=> a!4 (Proc25 P W B N M L J O H R E A D)))))))
(assert (forall ((A (Array Int Int))
         (B (Array Int Int))
         (C Bool)
         (D Int)
         (E Int)
         (F Int)
         (G Int)
         (H Int)
         (I (Array Int Int))
         (J Int)
         (K Bool)
         (L Int)
         (M Int)
         (N Int)
         (O Bool)
         (P Int)
         (Q Int)
         (R Int)
         (V (Array Int Int))
         (W (Array Int Int)))
  (let ((a!1 (and (not (= R 0)) (= Q (select W (+ 164 R)))))
        (a!2 (not (and (not (= Q 0)) K))))
  (let ((a!3 (or (not O)
                 (not a!1)
                 a!2
                 (= Q 0)
                 (= R 0)
                 (not (Proc22 P W V N M L J O R))
                 (not (Proc5 P W V N M L J O H R G I F))
                 (not (and (= E G) C (= D F))))))
  (let ((a!4 (and (not a!3) (= K (= V (store B Q 22))) (= C (= A I)))))
    (=> a!4 (Proc26 P W B N M L J O H R E A D)))))))
(assert (forall ((A (Array Int Int))
         (B (Array Int Int))
         (C Bool)
         (D Int)
         (E Int)
         (F Int)
         (G Int)
         (H Int)
         (I (Array Int Int))
         (J Int)
         (K Bool)
         (L Int)
         (M Int)
         (N Int)
         (O Bool)
         (P Int)
         (Q Int)
         (R Int)
         (V (Array Int Int))
         (W (Array Int Int)))
  (let ((a!1 (and (not (= R 0)) (= Q (select W (+ 164 R)))))
        (a!2 (not (and (not (= Q 0)) K))))
  (let ((a!3 (or (not O)
                 (not a!1)
                 a!2
                 (= Q 0)
                 (= R 0)
                 (not (Proc22 P W V N M L J O R))
                 (not (Proc5 P W V N M L J O H R G I F))
                 (not (and (= E G) C (= D F))))))
  (let ((a!4 (and (not a!3) (= K (= V (store B Q 22))) (= C (= A I)))))
    (=> a!4 (Proc27 P W B N M L J O H R E A D)))))))
(assert (forall ((A (Array Int Int))
         (B (Array Int Int))
         (C Bool)
         (D Int)
         (E Int)
         (F Int)
         (G Int)
         (H Int)
         (I (Array Int Int))
         (J Int)
         (K Bool)
         (L Int)
         (M Int)
         (N Int)
         (O Bool)
         (P Int)
         (Q Int)
         (R Int)
         (V (Array Int Int))
         (W (Array Int Int)))
  (let ((a!1 (and (not (= R 0)) (= Q (select W (+ 164 R)))))
        (a!2 (not (and (not (= Q 0)) K))))
  (let ((a!3 (or (not O)
                 (not a!1)
                 a!2
                 (= Q 0)
                 (= R 0)
                 (not (Proc22 P W V N M L J O R))
                 (not (Proc4 P W V N M L J O H R G I F))
                 (not (and (= E G) C (= D F))))))
  (let ((a!4 (and (not a!3) (= K (= V (store B Q 27))) (= C (= A I)))))
    (=> a!4 (Proc28 P W B N M L J O H R E A D)))))))
(assert (forall ((A (Array Int Int))
         (B (Array Int Int))
         (C Bool)
         (D Int)
         (E Int)
         (F Int)
         (G Int)
         (H Int)
         (I (Array Int Int))
         (J Int)
         (K Bool)
         (L Int)
         (M Int)
         (N Int)
         (O Bool)
         (P Int)
         (Q Int)
         (R Int)
         (S Int)
         (T Int)
         (U Int)
         (V (Array Int Int))
         (W (Array Int Int))
         (X Int)
         (Z Int))
  (let ((a!1 (and (not (= Z 0)) (= X (select W (+ 164 Z)))))
        (a!2 (not (and (not (= X 0)) K)))
        (a!3 (and (not (<= J (+ 1 L))) (not (<= J M))))
        (a!4 (not (and (= F N) C (= E H) (= D G)))))
  (let ((a!5 (and (or (not (= G 1)) a!4) (or (= G 1) a!4))))
  (let ((a!6 (not (or (not O)
                      (not a!1)
                      a!2
                      (= X 0)
                      (= Z 0)
                      (not (Proc21 U W V T S R Q O))
                      (not (Proc22 U W V T S R Q O Z))
                      (not (Proc4 U W V T S R Q O P Z N I M))
                      (not (Proc23 M W I T S R Q O N Z))
                      (not (= L M))
                      (not a!3)
                      (not (Proc10 J W I T S R Q O L Z H G))
                      a!5))))
  (let ((a!7 (and a!6 (= K (= V (store B X 27))) (= C (= A I)))))
    (=> a!7 (Proc29 U W B T S R Q O P Z F A E D))))))))
(assert (forall ((A (Array Int Int))
         (B (Array Int Int))
         (C Bool)
         (D Int)
         (E Int)
         (F Int)
         (G Int)
         (H Int)
         (I (Array Int Int))
         (J Int)
         (K Bool)
         (L Int)
         (M Int)
         (N Int)
         (O Bool)
         (P Int)
         (Q Int)
         (R Int)
         (V (Array Int Int))
         (W (Array Int Int)))
  (let ((a!1 (and (not (= R 0)) (= Q (select W (+ 164 R)))))
        (a!2 (not (and (not (= Q 0)) K))))
  (let ((a!3 (or (not O)
                 (not a!1)
                 a!2
                 (= Q 0)
                 (= R 0)
                 (not (Proc22 P W V N M L J O R))
                 (not (Proc5 P W V N M L J O H R G I F))
                 (not (and (= E G) C (= D F))))))
  (let ((a!4 (and (not a!3) (= K (= V (store B Q 22))) (= C (= A I)))))
    (=> a!4 (Proc30 P W B N M L J O H R E A D)))))))
(assert (forall ((A (Array Int Int))
         (B (Array Int Int))
         (C Bool)
         (D Int)
         (E Int)
         (F Int)
         (G Int)
         (H Int)
         (I (Array Int Int))
         (J Int)
         (K Bool)
         (L Int)
         (M Int)
         (N Int)
         (O Bool)
         (P Int)
         (Q Int)
         (R Int)
         (V (Array Int Int))
         (W (Array Int Int)))
  (let ((a!1 (and (not (= R 0)) (= Q (select W (+ 164 R)))))
        (a!2 (not (and (not (= Q 0)) K))))
  (let ((a!3 (or (not O)
                 (not a!1)
                 a!2
                 (= Q 0)
                 (= R 0)
                 (not (Proc22 P W V N M L J O R))
                 (not (Proc5 P W V N M L J O H R G I F))
                 (not (and (= E G) C (= D F))))))
  (let ((a!4 (and (not a!3) (= K (= V (store B Q 22))) (= C (= A I)))))
    (=> a!4 (Proc31 P W B N M L J O H R E A D)))))))
(assert (forall ((A (Array Int Int))
         (B (Array Int Int))
         (C Bool)
         (D Int)
         (E Int)
         (F Int)
         (G Int)
         (H Int)
         (J Int))
  (=> (not (or (not C) (= J 0))) (Proc22 H B A G F E D C J))))
(assert (forall ((A (Array Int Int))
         (B (Array Int Int))
         (C Bool)
         (D Int)
         (E Int)
         (F Int)
         (G Int)
         (H Int)
         (I (Array Int Int))
         (J Int)
         (K Bool)
         (L Int)
         (M Int)
         (N Int)
         (O Bool)
         (P Int)
         (Q Int)
         (R Int)
         (S Int)
         (T Int)
         (U Int)
         (V (Array Int Int))
         (W (Array Int Int))
         (X Int)
         (Y Bool)
         (Z Int)
         (A1 Int)
         (B1 Int)
         (C1 Int)
         (D1 Int)
         (E1 Int)
         (F1 Int)
         (H1 (Array Int Int))
         (J1 (Array Int Int))
         (K1 (Array Int Int))
         (L1 Int)
         (M1 Int)
         (N1 Int)
         (O1 Int)
         (P1 Int)
         (Q1 Int)
         (R1 Int)
         (S1 (Array Int Int))
         (T1 Int)
         (U1 Int)
         (V1 Int)
         (W1 Int)
         (X1 (Array Int Int))
         (Y1 Int)
         (Z1 Int)
         (A2 Int)
         (B2 Int)
         (C2 Int)
         (D2 Int)
         (E2 (Array Int Int))
         (F2 (Array Int Int))
         (G2 Int))
  (let ((a!1 (or (not (= Q1 1))
                 (not (and O (= P1 R1)))
                 (not (and K (= O1 P1) (= N1 Q1)))))
        (a!2 (or (= Q1 1)
                 (not (<= 0 T1))
                 (not (= M1 1))
                 (= M1 0)
                 (not (Proc24 R1 F2 S1 D2 C2 B2 Q1 Y L1 C2 F1 K1 E1))
                 (not (<= 0 F1))
                 (not (= D1 1))
                 (= D1 0)
                 (not (Proc25 E1 F2 K1 D2 C2 B2 Q1 Y C1 C2 B1 J1 A1))
                 (not (<= 0 B1))
                 (not (= Z 1))
                 (= Z 0)
                 (not (Proc27 A1 F2 J1 D2 C2 B2 Q1 Y X C2 U H1 T))
                 (not (<= 0 U))
                 (not (= S 1))
                 (= S 0)
                 (not (Proc31 T F2 H1 D2 C2 B2 Q1 Y R C2 Q W P))
                 (not (<= 0 Q))
                 (not (= N 1))
                 (= N 0)
                 (not (Proc26 P F2 W D2 C2 B2 Q1 Y M C2 L V J))
                 (not (<= 0 L))
                 (not (= H 1))
                 (= H 0)
                 (not (Proc30 J F2 V D2 C2 B2 Q1 Y G C2 F I E))
                 (not (<= 0 F))
                 (not (= D 1))
                 (= D 0)
                 (not (and C (= P1 E)))
                 (not (and K (= O1 P1) (= N1 Q1))))))
  (let ((a!3 (not (or (not Y)
                      (not (Proc32 G2 F2 E2 D2 C2 B2 A2 Y))
                      (not (Proc28 G2 F2 E2 D2 C2 B2 A2 Y Z1 C2 Y1 X1 W1))
                      (not (<= 0 Y1))
                      (not (= V1 1))
                      (= V1 0)
                      (not (Proc29 W1 F2 X1 D2 C2 B2 A2 Y U1 C2 T1 S1 R1 Q1))
                      (and a!1 a!2)))))
    (=> (and a!3 (= O (= B S1)) (= K (= A B)) (= C (= B I)))
        (Proc18 G2 F2 E2 D2 C2 B2 A2 Y A O1 N1))))))
(assert (forall ((A (Array Int Int))
         (B (Array Int Int))
         (C Bool)
         (D Int)
         (E Int)
         (F Int)
         (G Int)
         (H Int))
  (=> C (Proc21 H B A G F E D C))))
(assert (forall ((A (Array Int Int))
         (B (Array Int Int))
         (C Bool)
         (D Int)
         (E Int)
         (F Int)
         (G Int)
         (H Int)
         (J Int)
         (L Int))
  (=> C (Proc23 L B A J H G F C E D))))
(assert (forall ((A (Array Int Int))
         (B (Array Int Int))
         (C Bool)
         (D Int)
         (E Int)
         (F Int)
         (G Int)
         (H Int))
  (=> C (Proc32 H B A G F E D C))))
(assert (forall ((A (Array Int Int))
         (B (Array Int Int))
         (C Bool)
         (D Int)
         (E Int)
         (F Int)
         (G Int)
         (H Int)
         (J Int)
         (L Int)
         (M Int)
         (N Int)
         (P Int)
         (Q Int)
         (R Int)
         (S Int)
         (T Int)
         (U Int)
         (X Int)
         (Z Int)
         (A1 Int)
         (B1 Int)
         (C1 Int)
         (D1 Int)
         (E1 Int)
         (F1 Int)
         (L1 Int)
         (M1 Int)
         (N1 Int)
         (O1 Int)
         (P1 Int)
         (Q1 Int)
         (R1 Int)
         (T1 Int)
         (U1 Int)
         (V1 Int)
         (W1 Int)
         (Y1 Int)
         (Z1 Int)
         (A2 Int)
         (B2 Int)
         (C2 Int)
         (D2 Int)
         (G2 Int)
         (H2 Int)
         (I2 Int)
         (J2 Int)
         (K2 Int)
         (L2 Int)
         (M2 Int)
         (N2 Int)
         (O2 Int)
         (P2 Int)
         (Q2 Int)
         (R2 Int)
         (S2 Int)
         (T2 Int)
         (U2 Int)
         (V2 Int)
         (W2 Int)
         (X2 Int)
         (Y2 Int))
  (let ((a!1 (and (= Y2 X2) (not (<= W2 (+ 332 Y2)))))
        (a!2 (and (not (<= W2 X2))
                  (= V2 W2)
                  (not (<= U2 (+ 4 V2)))
                  (not (<= U2 W2))))
        (a!3 (and (= T2 U2)
                  (not (<= S2 (+ 332 T2)))
                  (not (<= S2 U2))
                  (= R2 S2)
                  (not (<= Q2 (+ 4 R2)))
                  (not (<= Q2 S2))
                  (= P2 Q2)
                  (not (<= O2 (+ 536 P2)))))
        (a!4 (and (not (<= O2 Q2))
                  (= N2 O2)
                  (not (<= M2 (+ 240 N2)))
                  (not (<= M2 O2))
                  (= L2 M2)
                  (not (<= K2 (+ 240 L2)))
                  (not (<= K2 M2))
                  (= J2 K2)
                  (not (<= I2 (+ 536 J2)))
                  (not (<= I2 K2))
                  (= H2 I2)
                  (not (<= G2 (+ 240 H2)))
                  (not (<= G2 I2))
                  (= D2 G2)
                  (not (<= C2 (+ 4 D2)))
                  (not (<= C2 G2))
                  (= B2 C2)
                  (not (<= A2 (+ 536 B2)))
                  (not (<= A2 C2))
                  (= Z1 A2)
                  (not (<= Y1 (+ 332 Z1)))
                  (not (<= Y1 A2))
                  (= W1 Y1)
                  (not (<= V1 (+ 240 W1)))
                  (not (<= V1 Y1))
                  (= U1 V1)
                  (not (<= T1 (+ 240 U1)))
                  (not (<= T1 V1))
                  (= R1 T1)
                  (not (<= Q1 (+ 332 R1)))
                  (not (<= Q1 T1))
                  (= P1 Q1)
                  (not (<= O1 (+ 4 P1)))
                  (not (<= O1 Q1))
                  (= N1 O1)
                  (not (<= M1 (+ 536 N1)))
                  (not (<= M1 O1))
                  (= L1 M1)
                  (not (<= F1 (+ 240 L1)))
                  (not (<= F1 M1))
                  (= E1 F1)
                  (not (<= D1 (+ 240 E1)))
                  (not (<= D1 F1))
                  (= C1 D1)
                  (not (<= B1 (+ 240 C1)))
                  (not (<= B1 D1))
                  (= A1 B1)
                  (not (<= Z (+ 240 A1)))
                  (not (<= Z B1))
                  (= X Z)
                  (not (<= U (+ 240 X)))
                  (not (<= U Z))
                  (= T U)
                  (not (<= S (+ 40 T)))
                  (not (<= S U))
                  (= R S)
                  (not (<= Q (+ 332 R)))
                  (not (<= Q S))
                  (= P Q)
                  (not (<= N (+ 4 P)))
                  (not (<= N Q))
                  (= M N)
                  (not (<= L (+ 40 M)))
                  (not (<= L N)))))
  (let ((a!5 (or (not C)
                 (not a!1)
                 (not a!2)
                 (not a!3)
                 (not a!4)
                 (not (and (= J L) (= H X))))))
    (=> (not a!5) (Proc17 X2 B A G F E D C J H))))))
(assert (forall ((A (Array Int Int))
         (B (Array Int Int))
         (C Bool)
         (D Int)
         (E Int)
         (F Int)
         (G Int)
         (H Int)
         (I (Array Int Int))
         (J Int)
         (K Bool)
         (L Int)
         (M Int)
         (N Int)
         (O Bool)
         (P Int)
         (Q Int)
         (R Int)
         (S Int)
         (T Int)
         (U Int)
         (V (Array Int Int))
         (W (Array Int Int))
         (X Int)
         (Z Int)
         (H1 (Array Int Int)))
  (let ((a!1 (or (not O)
                 (not (and (Proc19 Z H1 W X U T S true R Q P N V K M L I)
                           (not K))))))
    (=> (not a!1) (Proc33 Z H1 W X U T S O J C H G F B E D A)))))
(assert (let ((a!1 (exists ((V0 Int)
                    (V1 (Array Int Int))
                    (V2 (Array Int Int))
                    (V3 Int)
                    (V4 Int)
                    (V5 Int)
                    (V6 Int)
                    (V7 Bool)
                    (V8 Int)
                    (V9 Bool)
                    (V10 Int)
                    (V11 Int)
                    (V12 Int)
                    (V13 (Array Int Int))
                    (V14 Int)
                    (V15 Int)
                    (V16 (Array Int Int)))
             (not (=> (and (Proc33 V0
                                   V1
                                   V2
                                   V3
                                   V4
                                   V5
                                   V6
                                   V7
                                   V8
                                   V9
                                   V10
                                   V11
                                   V12
                                   V13
                                   V14
                                   V15
                                   V16)
                           (not false))
                      false)))))
  (not a!1)))

(check-sat)
